Route #1: 22 36 9 38 13 14 41 2
Route #2: 43 29 40 23 30 17
Route #3: 6 25 3 12 39 34 4
Route #4: 26 10 11 16 20 18 35 1
Route #5: 19 33 37 42 32 21 5 24
Route #6: 31 8 15 27 28 7
Cost 937
Time 0.072592
